output_file = "9-1-B-60-1.60-45.csv";

n_days = 60;
n_shelf_types = 2;
n_crops = 1;

num_shelves = [
    6, 3
];


crop_shelf_type_compatible = [
    [1, 1]
];

crop_growth_days = [15];

n_configurations = 2;

crop_growth_day_config = [
    [1, 1, 1, 2, 2, 2, 2, 2, 2, 2, 2, 2, 2, 2, 2]
];

capacity = [
    [12, 12],
[12, 12]
];

demand = [
    [0, 0, 0, 0, 0, 0, 0, 0, 0, 0, 0, 0, 0, 0, 0, 8, 11, 0, 0, 0, 3, 0, 3, 0, 0, 11, 0, 0, 0, 0, 0, 17, 0, 0, 0, 0, 8, 11, 8, 12, 9, 3, 8, 0, 0, 0, 0, 0, 0, 0, 0, 0, 19, 24, 0, 6, 0, 0, 8, 0]
];
